WARNING: for repeatability, setting FPU to use double precision
============================[ Problem Statistics ]=============================
|                                                                             |
|  Number of variables:            50                                         |
|  Number of clauses:             218                                         |
|  Parse time:                   0.00 s                                       |
|                                                                             |
============================[ Search Statistics ]==============================
| Conflicts |          ORIGINAL         |          LEARNT          | Progress |
|           |    Vars  Clauses Literals |    Limit  Clauses Lit/Cl |          |
===============================================================================
===============================================================================
restarts              : 1
conflicts             : 57             (38051 /sec)
decisions             : 69             (0.00 % random) (46061 /sec)
propagations          : 852            (568758 /sec)
conflict literals     : 226            (22.07 % deleted)
Memory used           : 20.00 MB
CPU time              : 0.001498 s

SATISFIABLE
